CPXPARAM_Read_DataCheck                          1
Found incumbent of value 0.000000 after 0.00 sec. (0.52 ticks)
Tried aggregator 1 time.
MIP Presolve eliminated 2 rows and 0 columns.
MIP Presolve modified 1 coefficients.
Reduced MIP has 2031 rows, 20010 columns, and 96034 nonzeros.
Reduced MIP has 20010 binaries, 0 generals, 0 SOSs, and 0 indicators.
Presolve time = 0.05 sec. (36.55 ticks)
Tried aggregator 1 time.
Reduced MIP has 2031 rows, 20010 columns, and 96034 nonzeros.
Reduced MIP has 20010 binaries, 0 generals, 0 SOSs, and 0 indicators.
Presolve time = 0.06 sec. (41.29 ticks)
Probing time = 0.05 sec. (14.11 ticks)
Clique table members: 68077.
MIP emphasis: balance optimality and feasibility.
MIP search method: dynamic search.
Parallel mode: deterministic, using up to 4 threads.
Root relaxation solution time = 0.25 sec. (252.66 ticks)

        Nodes                                         Cuts/
   Node  Left     Objective  IInf  Best Integer    Best Bound    ItCnt     Gap

*     0+    0                            0.0000   124237.0000              --- 
      0     0    66904.7585    10        0.0000    66904.7585       15     --- 
*     0+    0                        33759.0000    66904.7585            98.18%
*     0+    0                        35696.0000    66904.7585            87.43%
      0     0    66857.4355    10    35696.0000  Cliques: 607       34   25.00%
      0     0        cutoff          35696.0000    35696.0000       40    0.00%
Elapsed time = 12.98 sec. (5145.31 ticks, tree = 0.01 MB, solutions = 3)

Clique cuts applied:  1213

Root node processing (before b&c):
  Real time             =   13.00 sec. (5146.72 ticks)
Parallel b&c, 4 threads:
  Real time             =    0.00 sec. (0.00 ticks)
  Sync time (average)   =    0.00 sec.
  Wait time (average)   =    0.00 sec.
                          ------------
Total (root+branch&cut) =   13.00 sec. (5146.72 ticks)
